179632.0
2227
0 2 3 7 8 9 10 13 14 15 17 18 19 20 21 22 23 24 27 30 36 37 41 42 49 50 51 52 53 54 56 58 63 66 67 68 69 70 72 73 74 78 82 83 86 91 93 94 96 98 100 105 107 112 113 114 115 116 118 121 122 123 124 130 133 138 141 142 148 150 153 155 160 161 162 163 164 167 169 170 172 176 177 180 181 182 183 184 187 191 195 198 199 